c Generated map
c Size: 8 * 8, weights in range: 1 to 10, walls: True, with ratio 0.05
c dim 5 of 8
c
p sp 64 103
c graph contains 64 nodes and 103 arcs
c
a 1 2 9
a 2 1 9
a 2 10 4
a 10 2 4
a 2 3 9
a 3 2 9
a 3 11 5
a 11 3 5
a 3 4 6
a 4 3 6
a 4 12 10
a 12 4 10
a 4 5 5
a 5 4 5
a 5 13 4
a 13 5 4
a 5 6 6
a 6 5 6
a 6 14 5
a 14 6 5
a 6 7 4
a 7 6 4
a 7 15 8
a 15 7 8
a 10 18 3
a 18 10 3
a 10 11 6
a 11 10 6
a 11 19 10
a 19 11 10
a 11 12 1
a 12 11 1
a 12 20 4
a 20 12 4
a 12 13 1
a 13 12 1
a 13 21 3
a 21 13 3
a 13 14 10
a 14 13 10
a 14 22 3
a 22 14 3
a 14 15 7
a 15 14 7
a 15 23 2
a 23 15 2
a 15 16 1
a 16 15 1
a 16 24 5
a 24 16 5
a 17 25 2
a 25 17 2
a 17 18 6
a 18 17 6
a 18 26 3
a 26 18 3
a 18 19 2
a 19 18 2
a 19 27 8
a 27 19 8
a 19 20 7
a 20 19 7
a 20 28 5
a 28 20 5
a 20 21 1
a 21 20 1
a 21 29 7
a 29 21 7
a 21 22 2
a 22 21 2
a 22 30 5
a 30 22 5
a 22 23 1
a 23 22 1
a 23 31 2
a 31 23 2
a 23 24 3
a 24 23 3
a 24 32 4
a 32 24 4
a 25 33 5
a 33 25 5
a 25 26 6
a 26 25 6
a 26 34 1
a 34 26 1
a 26 27 8
a 27 26 8
a 27 35 6
a 35 27 6
a 27 28 6
a 28 27 6
a 28 36 9
a 36 28 9
a 28 29 9
a 29 28 9
a 29 37 1
a 37 29 1
a 29 30 5
a 30 29 5
a 30 38 5
a 38 30 5
a 30 31 7
a 31 30 7
a 31 39 8
a 39 31 8
a 31 32 9
a 32 31 9
a 32 40 5
a 40 32 5
a 33 41 5
a 41 33 5
a 33 34 9
a 34 33 9
a 34 42 7
a 42 34 7
a 34 35 8
a 35 34 8
a 35 36 6
a 36 35 6
a 36 44 8
a 44 36 8
a 36 37 7
a 37 36 7
a 37 45 8
a 45 37 8
a 37 38 5
a 38 37 5
a 38 46 8
a 46 38 8
a 38 39 4
a 39 38 4
a 39 47 2
a 47 39 2
a 39 40 9
a 40 39 9
a 40 48 4
a 48 40 4
a 41 49 8
a 49 41 8
a 41 42 2
a 42 41 2
a 42 50 6
a 50 42 6
a 44 52 5
a 52 44 5
a 44 45 3
a 45 44 3
a 45 53 9
a 53 45 9
a 45 46 1
a 46 45 1
a 46 54 8
a 54 46 8
a 46 47 2
a 47 46 2
a 47 55 1
a 55 47 1
a 47 48 3
a 48 47 3
a 48 56 9
a 56 48 9
a 49 57 1
a 57 49 1
a 49 50 4
a 50 49 4
a 50 58 10
a 58 50 10
a 50 51 8
a 51 50 8
a 51 59 6
a 59 51 6
a 51 52 3
a 52 51 3
a 52 60 7
a 60 52 7
a 52 53 4
a 53 52 4
a 53 61 4
a 61 53 4
a 53 54 3
a 54 53 3
a 54 62 2
a 62 54 2
a 54 55 7
a 55 54 7
a 55 63 4
a 63 55 4
a 55 56 10
a 56 55 10
a 56 64 4
a 64 56 4
a 57 58 8
a 58 57 8
a 58 59 1
a 59 58 1
a 59 60 8
a 60 59 8
a 60 61 10
a 61 60 10
a 61 62 10
a 62 61 10
a 62 63 6
a 63 62 6
a 63 64 2
a 64 63 2
